p cnf 2193
-13 -192
-14 -68
-15 -71
-16 -74
-17 -77
-18 -80
-19 -83
-20 -224
-21 -230
-22 -236
-23 -242
-24 -248
-25 -254
-26 -278
-27 -297
-28 -315
-29 -325
-30 -344
-31 -363
-32 -381
-33 -391
-34 -410
-35 -429
-36 -447
-37 -457
-38 -476
-39 -495
-40 -513
-41 -523
-42 -542
-43 -561
-44 -579
-45 -589
-46 -608
-47 -627
-48 -645
-49 -655
-50 -695
-51 1
-51 -20
-1 20 51
-52 2
-52 -21
-2 21 52
-53 3
-53 -22
-3 22 53
-54 4
-54 -23
-4 23 54
-55 5
-55 -24
-5 24 55
-56 6
-56 -25
-6 25 56
-57 -51
-57 52
51 -52 57
-58 -51
-58 -57
51 57 58
-59 53
-59 58
-53 -58 59
-60 58
-60 -59
-58 59 60
-61 54
-61 60
-54 -60 61
-62 60
-62 -61
-60 61 62
-63 55
-63 62
-55 -62 63
-64 62
-64 -63
-62 63 64
-65 56
-65 64
-56 -64 65
-66 -13
-66 51
13 -51 66
-67 13
-67 14
-13 -14 67
-68 -66
-68 -67
66 67 68
-69 -13
-69 57
13 -57 69
-70 13
-70 15
-13 -15 70
-71 -69
-71 -70
69 70 71
-72 -13
-72 59
13 -59 72
-73 13
-73 16
-13 -16 73
-74 -72
-74 -73
72 73 74
-75 -13
-75 61
13 -61 75
-76 13
-76 17
-13 -17 76
-77 -75
-77 -76
75 76 77
-78 -13
-78 63
13 -63 78
-79 13
-79 18
-13 -18 79
-80 -78
-80 -79
78 79 80
-81 -13
-81 65
13 -65 81
-82 13
-82 19
-13 -19 82
-83 -81
-83 -82
81 82 83
-84 1
-84 -68
-1 68 84
-85 2
-85 -71
-2 71 85
-86 3
-86 -74
-3 74 86
-87 4
-87 -77
-4 77 87
-88 5
-88 -80
-5 80 88
-89 6
-89 -83
-6 83 89
-90 26
-90 -27
-26 27 90
-91 -28
-91 -29
28 29 91
-92 90
-92 91
-90 -91 92
-93 -26
-93 -27
26 27 93
-94 -28
-94 29
28 -29 94
-95 93
-95 94
-93 -94 95
-96 -92
-96 -95
92 95 96
-97 84
-97 -96
-84 96 97
-98 30
-98 -31
-30 31 98
-99 -32
-99 -33
32 33 99
-100 98
-100 99
-98 -99 100
-101 -30
-101 -31
30 31 101
-102 -32
-102 33
32 -33 102
-103 101
-103 102
-101 -102 103
-104 -100
-104 -103
100 103 104
-105 85
-105 -104
-85 104 105
-106 34
-106 -35
-34 35 106
-107 -36
-107 -37
36 37 107
-108 106
-108 107
-106 -107 108
-109 -34
-109 -35
34 35 109
-110 -36
-110 37
36 -37 110
-111 109
-111 110
-109 -110 111
-112 -108
-112 -111
108 111 112
-113 86
-113 -112
-86 112 113
-114 38
-114 -39
-38 39 114
-115 -40
-115 -41
40 41 115
-116 114
-116 115
-114 -115 116
-117 -38
-117 -39
38 39 117
-118 -40
-118 41
40 -41 118
-119 117
-119 118
-117 -118 119
-120 -116
-120 -119
116 119 120
-121 87
-121 -120
-87 120 121
-122 42
-122 -43
-42 43 122
-123 -44
-123 -45
44 45 123
-124 122
-124 123
-122 -123 124
-125 -42
-125 -43
42 43 125
-126 -44
-126 45
44 -45 126
-127 125
-127 126
-125 -126 127
-128 -124
-128 -127
124 127 128
-129 88
-129 -128
-88 128 129
-130 46
-130 -47
-46 47 130
-131 -48
-131 -49
48 49 131
-132 130
-132 131
-130 -131 132
-133 -46
-133 -47
46 47 133
-134 -48
-134 49
48 -49 134
-135 133
-135 134
-133 -134 135
-136 -132
-136 -135
132 135 136
-137 89
-137 -136
-89 136 137
-138 -97
-138 -105
97 105 138
-139 -113
-139 -121
113 121 139
-140 -129
-140 -137
129 137 140
-141 138
-141 139
-138 -139 141
-142 140
-142 141
-140 -141 142
-143 -26
-143 27
26 -27 143
-144 28
-144 -29
-28 29 144
-145 143
-145 144
-143 -144 145
-146 28
-146 29
-28 -29 146
-147 90
-147 146
-90 -146 147
-148 -145
-148 -147
145 147 148
-149 84
-149 -148
-84 148 149
-150 -30
-150 31
30 -31 150
-151 32
-151 -33
-32 33 151
-152 150
-152 151
-150 -151 152
-153 32
-153 33
-32 -33 153
-154 98
-154 153
-98 -153 154
-155 -152
-155 -154
152 154 155
-156 85
-156 -155
-85 155 156
-157 -34
-157 35
34 -35 157
-158 36
-158 -37
-36 37 158
-159 157
-159 158
-157 -158 159
-160 36
-160 37
-36 -37 160
-161 106
-161 160
-106 -160 161
-162 -159
-162 -161
159 161 162
-163 86
-163 -162
-86 162 163
-164 -38
-164 39
38 -39 164
-165 40
-165 -41
-40 41 165
-166 164
-166 165
-164 -165 166
-167 40
-167 41
-40 -41 167
-168 114
-168 167
-114 -167 168
-169 -166
-169 -168
166 168 169
-170 87
-170 -169
-87 169 170
-171 -42
-171 43
42 -43 171
-172 44
-172 -45
-44 45 172
-173 171
-173 172
-171 -172 173
-174 44
-174 45
-44 -45 174
-175 122
-175 174
-122 -174 175
-176 -173
-176 -175
173 175 176
-177 88
-177 -176
-88 176 177
-178 -46
-178 47
46 -47 178
-179 48
-179 -49
-48 49 179
-180 178
-180 179
-178 -179 180
-181 48
-181 49
-48 -49 181
-182 130
-182 181
-130 -181 182
-183 -180
-183 -182
180 182 183
-184 89
-184 -183
-89 183 184
-185 -149
-185 -156
149 156 185
-186 -163
-186 -170
163 170 186
-187 -177
-187 -184
177 184 187
-188 185
-188 186
-185 -186 188
-189 187
-189 188
-187 -188 189
-190 13
-190 189
-13 -189 190
-191 142
-191 190
-142 -190 191
-192 142
-192 -191
-142 191 192
-193 -20
-193 21
20 -21 193
-194 -20
-194 -193
20 193 194
-195 22
-195 194
-22 -194 195
-196 194
-196 -195
-194 195 196
-197 23
-197 196
-23 -196 197
-198 196
-198 -197
-196 197 198
-199 24
-199 198
-24 -198 199
-200 198
-200 -199
-198 199 200
-201 25
-201 200
-25 -200 201
-202 93
-202 146
-93 -146 202
-203 84
-203 202
-84 -202 203
-204 101
-204 153
-101 -153 204
-205 85
-205 204
-85 -204 205
-206 109
-206 160
-109 -160 206
-207 86
-207 206
-86 -206 207
-208 117
-208 167
-117 -167 208
-209 87
-209 208
-87 -208 209
-210 125
-210 174
-125 -174 210
-211 88
-211 210
-88 -210 211
-212 133
-212 181
-133 -181 212
-213 89
-213 212
-89 -212 213
-214 -203
-214 -205
203 205 214
-215 -207
-215 -209
207 209 215
-216 -211
-216 -213
211 213 216
-217 214
-217 215
-214 -215 217
-218 216
-218 217
-216 -217 218
-219 90
-219 144
-90 -144 219
-220 84
-220 219
-84 -219 220
-221 20
-221 -218
-20 218 221
-222 20
-222 -221
-20 221 222
-223 -220
-223 222
220 -222 223
-224 -220
-224 -223
220 223 224
-225 98
-225 151
-98 -151 225
-226 85
-226 225
-85 -225 226
-227 193
-227 -218
-193 218 227
-228 21
-228 -227
-21 227 228
-229 -226
-229 228
226 -228 229
-230 -226
-230 -229
226 229 230
-231 106
-231 158
-106 -158 231
-232 86
-232 231
-86 -231 232
-233 195
-233 -218
-195 218 233
-234 22
-234 -233
-22 233 234
-235 -232
-235 234
232 -234 235
-236 -232
-236 -235
232 235 236
-237 114
-237 165
-114 -165 237
-238 87
-238 237
-87 -237 238
-239 197
-239 -218
-197 218 239
-240 23
-240 -239
-23 239 240
-241 -238
-241 240
238 -240 241
-242 -238
-242 -241
238 241 242
-243 122
-243 172
-122 -172 243
-244 88
-244 243
-88 -243 244
-245 199
-245 -218
-199 218 245
-246 24
-246 -245
-24 245 246
-247 -244
-247 246
244 -246 247
-248 -244
-248 -247
244 247 248
-249 130
-249 179
-130 -179 249
-250 89
-250 249
-89 -249 250
-251 201
-251 -218
-201 218 251
-252 25
-252 -251
-25 251 252
-253 -250
-253 252
250 -252 253
-254 -250
-254 -253
250 253 254
-255 -20
-255 -21
20 21 255
-256 -22
-256 -23
22 23 256
-257 -24
-257 -25
24 25 257
-258 255
-258 256
-255 -256 258
-259 257
-259 258
-257 -258 259
-260 -27
-260 -93
27 93 260
-261 28
-261 93
-28 -93 261
-262 -28
-262 -260
28 260 262
-263 -261
-263 -262
261 262 263
-264 -7
-264 26
7 -26 264
-265 26
-265 -264
-26 264 265
-266 27
-266 -265
-27 265 266
-267 7
-267 -26
-7 26 267
-268 -27
-268 267
27 -267 268
-269 -143
-269 -268
143 268 269
-270 28
-270 266
-28 -266 270
-271 -28
-271 -269
28 269 271
-272 -270
-272 -271
270 271 272
-273 29
-273 -263
-29 263 273
-274 -29
-274 -272
29 272 274
-275 -273
-275 -274
273 274 275
-276 84
-276 -275
-84 275 276
-277 26
-277 -84
-26 84 277
-278 -276
-278 -277
276 277 278
-279 26
-279 259
-26 -259 279
-280 -27
-280 279
27 -279 280
-281 -143
-281 -280
143 280 281
-282 28
-282 90
-28 -90 282
-283 -28
-283 -281
28 281 283
-284 -282
-284 -283
282 283 284
-285 27
-285 -266
-27 266 285
-286 -26
-286 -50
26 50 286
-287 27
-287 286
-27 -286 287
-288 -90
-288 -287
90 287 288
-289 28
-289 -285
-28 285 289
-290 -28
-290 -288
28 288 290
-291 -289
-291 -290
289 290 291
-292 29
-292 -284
-29 284 292
-293 -29
-293 -291
29 291 293
-294 -292
-294 -293
292 293 294
-295 84
-295 -294
-84 294 295
-296 27
-296 -84
-27 84 296
-297 -295
-297 -296
295 296 297
-298 26
-298 -259
-26 259 298
-299 26
-299 27
-26 -27 299
-300 -27
-300 298
27 -298 300
-301 -299
-301 -300
299 300 301
-302 -27
-302 28
27 -28 302
-303 -28
-303 -301
28 301 303
-304 -302
-304 -303
302 303 304
-305 -26
-305 50
26 -50 305
-306 -26
-306 -305
26 305 306
-307 27
-307 -306
-27 306 307
-308 -28
-308 307
28 -307 308
-309 -289
-309 -308
289 308 309
-310 29
-310 -304
-29 304 310
-311 -29
-311 -309
29 309 311
-312 -310
-312 -311
310 311 312
-313 84
-313 -312
-84 312 313
-314 28
-314 -84
-28 84 314
-315 -313
-315 -314
313 314 315
-316 28
-316 -302
-28 302 316
-317 7
-317 26
-7 -26 317
-318 27
-318 317
-27 -317 318
-319 28
-319 318
-28 -318 319
-320 29
-320 -316
-29 316 320
-321 -29
-321 319
29 -319 321
-322 -320
-322 -321
320 321 322
-323 84
-323 -322
-84 322 323
-324 29
-324 -84
-29 84 324
-325 -323
-325 -324
323 324 325
-326 -31
-326 -101
31 101 326
-327 32
-327 101
-32 -101 327
-328 -32
-328 -326
32 326 328
-329 -327
-329 -328
327 328 329
-330 -8
-330 30
8 -30 330
-331 30
-331 -330
-30 330 331
-332 31
-332 -331
-31 331 332
-333 8
-333 -30
-8 30 333
-334 -31
-334 333
31 -333 334
-335 -150
-335 -334
150 334 335
-336 32
-336 332
-32 -332 336
-337 -32
-337 -335
32 335 337
-338 -336
-338 -337
336 337 338
-339 33
-339 -329
-33 329 339
-340 -33
-340 -338
33 338 340
-341 -339
-341 -340
339 340 341
-342 85
-342 -341
-85 341 342
-343 30
-343 -85
-30 85 343
-344 -342
-344 -343
342 343 344
-345 30
-345 259
-30 -259 345
-346 -31
-346 345
31 -345 346
-347 -150
-347 -346
150 346 347
-348 32
-348 98
-32 -98 348
-349 -32
-349 -347
32 347 349
-350 -348
-350 -349
348 349 350
-351 31
-351 -332
-31 332 351
-352 -30
-352 -50
30 50 352
-353 31
-353 352
-31 -352 353
-354 -98
-354 -353
98 353 354
-355 32
-355 -351
-32 351 355
-356 -32
-356 -354
32 354 356
-357 -355
-357 -356
355 356 357
-358 33
-358 -350
-33 350 358
-359 -33
-359 -357
33 357 359
-360 -358
-360 -359
358 359 360
-361 85
-361 -360
-85 360 361
-362 31
-362 -85
-31 85 362
-363 -361
-363 -362
361 362 363
-364 30
-364 -259
-30 259 364
-365 30
-365 31
-30 -31 365
-366 -31
-366 364
31 -364 366
-367 -365
-367 -366
365 366 367
-368 -31
-368 32
31 -32 368
-369 -32
-369 -367
32 367 369
-370 -368
-370 -369
368 369 370
-371 -30
-371 50
30 -50 371
-372 -30
-372 -371
30 371 372
-373 31
-373 -372
-31 372 373
-374 -32
-374 373
32 -373 374
-375 -355
-375 -374
355 374 375
-376 33
-376 -370
-33 370 376
-377 -33
-377 -375
33 375 377
-378 -376
-378 -377
376 377 378
-379 85
-379 -378
-85 378 379
-380 32
-380 -85
-32 85 380
-381 -379
-381 -380
379 380 381
-382 32
-382 -368
-32 368 382
-383 8
-383 30
-8 -30 383
-384 31
-384 383
-31 -383 384
-385 32
-385 384
-32 -384 385
-386 33
-386 -382
-33 382 386
-387 -33
-387 385
33 -385 387
-388 -386
-388 -387
386 387 388
-389 85
-389 -388
-85 388 389
-390 33
-390 -85
-33 85 390
-391 -389
-391 -390
389 390 391
-392 -35
-392 -109
35 109 392
-393 36
-393 109
-36 -109 393
-394 -36
-394 -392
36 392 394
-395 -393
-395 -394
393 394 395
-396 -9
-396 34
9 -34 396
-397 34
-397 -396
-34 396 397
-398 35
-398 -397
-35 397 398
-399 9
-399 -34
-9 34 399
-400 -35
-400 399
35 -399 400
-401 -157
-401 -400
157 400 401
-402 36
-402 398
-36 -398 402
-403 -36
-403 -401
36 401 403
-404 -402
-404 -403
402 403 404
-405 37
-405 -395
-37 395 405
-406 -37
-406 -404
37 404 406
-407 -405
-407 -406
405 406 407
-408 86
-408 -407
-86 407 408
-409 34
-409 -86
-34 86 409
-410 -408
-410 -409
408 409 410
-411 34
-411 259
-34 -259 411
-412 -35
-412 411
35 -411 412
-413 -157
-413 -412
157 412 413
-414 36
-414 106
-36 -106 414
-415 -36
-415 -413
36 413 415
-416 -414
-416 -415
414 415 416
-417 35
-417 -398
-35 398 417
-418 -34
-418 -50
34 50 418
-419 35
-419 418
-35 -418 419
-420 -106
-420 -419
106 419 420
-421 36
-421 -417
-36 417 421
-422 -36
-422 -420
36 420 422
-423 -421
-423 -422
421 422 423
-424 37
-424 -416
-37 416 424
-425 -37
-425 -423
37 423 425
-426 -424
-426 -425
424 425 426
-427 86
-427 -426
-86 426 427
-428 35
-428 -86
-35 86 428
-429 -427
-429 -428
427 428 429
-430 34
-430 -259
-34 259 430
-431 34
-431 35
-34 -35 431
-432 -35
-432 430
35 -430 432
-433 -431
-433 -432
431 432 433
-434 -35
-434 36
35 -36 434
-435 -36
-435 -433
36 433 435
-436 -434
-436 -435
434 435 436
-437 -34
-437 50
34 -50 437
-438 -34
-438 -437
34 437 438
-439 35
-439 -438
-35 438 439
-440 -36
-440 439
36 -439 440
-441 -421
-441 -440
421 440 441
-442 37
-442 -436
-37 436 442
-443 -37
-443 -441
37 441 443
-444 -442
-444 -443
442 443 444
-445 86
-445 -444
-86 444 445
-446 36
-446 -86
-36 86 446
-447 -445
-447 -446
445 446 447
-448 36
-448 -434
-36 434 448
-449 9
-449 34
-9 -34 449
-450 35
-450 449
-35 -449 450
-451 36
-451 450
-36 -450 451
-452 37
-452 -448
-37 448 452
-453 -37
-453 451
37 -451 453
-454 -452
-454 -453
452 453 454
-455 86
-455 -454
-86 454 455
-456 37
-456 -86
-37 86 456
-457 -455
-457 -456
455 456 457
-458 -39
-458 -117
39 117 458
-459 40
-459 117
-40 -117 459
-460 -40
-460 -458
40 458 460
-461 -459
-461 -460
459 460 461
-462 -10
-462 38
10 -38 462
-463 38
-463 -462
-38 462 463
-464 39
-464 -463
-39 463 464
-465 10
-465 -38
-10 38 465
-466 -39
-466 465
39 -465 466
-467 -164
-467 -466
164 466 467
-468 40
-468 464
-40 -464 468
-469 -40
-469 -467
40 467 469
-470 -468
-470 -469
468 469 470
-471 41
-471 -461
-41 461 471
-472 -41
-472 -470
41 470 472
-473 -471
-473 -472
471 472 473
-474 87
-474 -473
-87 473 474
-475 38
-475 -87
-38 87 475
-476 -474
-476 -475
474 475 476
-477 38
-477 259
-38 -259 477
-478 -39
-478 477
39 -477 478
-479 -164
-479 -478
164 478 479
-480 40
-480 114
-40 -114 480
-481 -40
-481 -479
40 479 481
-482 -480
-482 -481
480 481 482
-483 39
-483 -464
-39 464 483
-484 -38
-484 -50
38 50 484
-485 39
-485 484
-39 -484 485
-486 -114
-486 -485
114 485 486
-487 40
-487 -483
-40 483 487
-488 -40
-488 -486
40 486 488
-489 -487
-489 -488
487 488 489
-490 41
-490 -482
-41 482 490
-491 -41
-491 -489
41 489 491
-492 -490
-492 -491
490 491 492
-493 87
-493 -492
-87 492 493
-494 39
-494 -87
-39 87 494
-495 -493
-495 -494
493 494 495
-496 38
-496 -259
-38 259 496
-497 38
-497 39
-38 -39 497
-498 -39
-498 496
39 -496 498
-499 -497
-499 -498
497 498 499
-500 -39
-500 40
39 -40 500
-501 -40
-501 -499
40 499 501
-502 -500
-502 -501
500 501 502
-503 -38
-503 50
38 -50 503
-504 -38
-504 -503
38 503 504
-505 39
-505 -504
-39 504 505
-506 -40
-506 505
40 -505 506
-507 -487
-507 -506
487 506 507
-508 41
-508 -502
-41 502 508
-509 -41
-509 -507
41 507 509
-510 -508
-510 -509
508 509 510
-511 87
-511 -510
-87 510 511
-512 40
-512 -87
-40 87 512
-513 -511
-513 -512
511 512 513
-514 40
-514 -500
-40 500 514
-515 10
-515 38
-10 -38 515
-516 39
-516 515
-39 -515 516
-517 40
-517 516
-40 -516 517
-518 41
-518 -514
-41 514 518
-519 -41
-519 517
41 -517 519
-520 -518
-520 -519
518 519 520
-521 87
-521 -520
-87 520 521
-522 41
-522 -87
-41 87 522
-523 -521
-523 -522
521 522 523
-524 -43
-524 -125
43 125 524
-525 44
-525 125
-44 -125 525
-526 -44
-526 -524
44 524 526
-527 -525
-527 -526
525 526 527
-528 -11
-528 42
11 -42 528
-529 42
-529 -528
-42 528 529
-530 43
-530 -529
-43 529 530
-531 11
-531 -42
-11 42 531
-532 -43
-532 531
43 -531 532
-533 -171
-533 -532
171 532 533
-534 44
-534 530
-44 -530 534
-535 -44
-535 -533
44 533 535
-536 -534
-536 -535
534 535 536
-537 45
-537 -527
-45 527 537
-538 -45
-538 -536
45 536 538
-539 -537
-539 -538
537 538 539
-540 88
-540 -539
-88 539 540
-541 42
-541 -88
-42 88 541
-542 -540
-542 -541
540 541 542
-543 42
-543 259
-42 -259 543
-544 -43
-544 543
43 -543 544
-545 -171
-545 -544
171 544 545
-546 44
-546 122
-44 -122 546
-547 -44
-547 -545
44 545 547
-548 -546
-548 -547
546 547 548
-549 43
-549 -530
-43 530 549
-550 -42
-550 -50
42 50 550
-551 43
-551 550
-43 -550 551
-552 -122
-552 -551
122 551 552
-553 44
-553 -549
-44 549 553
-554 -44
-554 -552
44 552 554
-555 -553
-555 -554
553 554 555
-556 45
-556 -548
-45 548 556
-557 -45
-557 -555
45 555 557
-558 -556
-558 -557
556 557 558
-559 88
-559 -558
-88 558 559
-560 43
-560 -88
-43 88 560
-561 -559
-561 -560
559 560 561
-562 42
-562 -259
-42 259 562
-563 42
-563 43
-42 -43 563
-564 -43
-564 562
43 -562 564
-565 -563
-565 -564
563 564 565
-566 -43
-566 44
43 -44 566
-567 -44
-567 -565
44 565 567
-568 -566
-568 -567
566 567 568
-569 -42
-569 50
42 -50 569
-570 -42
-570 -569
42 569 570
-571 43
-571 -570
-43 570 571
-572 -44
-572 571
44 -571 572
-573 -553
-573 -572
553 572 573
-574 45
-574 -568
-45 568 574
-575 -45
-575 -573
45 573 575
-576 -574
-576 -575
574 575 576
-577 88
-577 -576
-88 576 577
-578 44
-578 -88
-44 88 578
-579 -577
-579 -578
577 578 579
-580 44
-580 -566
-44 566 580
-581 11
-581 42
-11 -42 581
-582 43
-582 581
-43 -581 582
-583 44
-583 582
-44 -582 583
-584 45
-584 -580
-45 580 584
-585 -45
-585 583
45 -583 585
-586 -584
-586 -585
584 585 586
-587 88
-587 -586
-88 586 587
-588 45
-588 -88
-45 88 588
-589 -587
-589 -588
587 588 589
-590 -47
-590 -133
47 133 590
-591 48
-591 133
-48 -133 591
-592 -48
-592 -590
48 590 592
-593 -591
-593 -592
591 592 593
-594 -12
-594 46
12 -46 594
-595 46
-595 -594
-46 594 595
-596 47
-596 -595
-47 595 596
-597 12
-597 -46
-12 46 597
-598 -47
-598 597
47 -597 598
-599 -178
-599 -598
178 598 599
-600 48
-600 596
-48 -596 600
-601 -48
-601 -599
48 599 601
-602 -600
-602 -601
600 601 602
-603 49
-603 -593
-49 593 603
-604 -49
-604 -602
49 602 604
-605 -603
-605 -604
603 604 605
-606 89
-606 -605
-89 605 606
-607 46
-607 -89
-46 89 607
-608 -606
-608 -607
606 607 608
-609 46
-609 259
-46 -259 609
-610 -47
-610 609
47 -609 610
-611 -178
-611 -610
178 610 611
-612 48
-612 130
-48 -130 612
-613 -48
-613 -611
48 611 613
-614 -612
-614 -613
612 613 614
-615 47
-615 -596
-47 596 615
-616 -46
-616 -50
46 50 616
-617 47
-617 616
-47 -616 617
-618 -130
-618 -617
130 617 618
-619 48
-619 -615
-48 615 619
-620 -48
-620 -618
48 618 620
-621 -619
-621 -620
619 620 621
-622 49
-622 -614
-49 614 622
-623 -49
-623 -621
49 621 623
-624 -622
-624 -623
622 623 624
-625 89
-625 -624
-89 624 625
-626 47
-626 -89
-47 89 626
-627 -625
-627 -626
625 626 627
-628 46
-628 -259
-46 259 628
-629 46
-629 47
-46 -47 629
-630 -47
-630 628
47 -628 630
-631 -629
-631 -630
629 630 631
-632 -47
-632 48
47 -48 632
-633 -48
-633 -631
48 631 633
-634 -632
-634 -633
632 633 634
-635 -46
-635 50
46 -50 635
-636 -46
-636 -635
46 635 636
-637 47
-637 -636
-47 636 637
-638 -48
-638 637
48 -637 638
-639 -619
-639 -638
619 638 639
-640 49
-640 -634
-49 634 640
-641 -49
-641 -639
49 639 641
-642 -640
-642 -641
640 641 642
-643 89
-643 -642
-89 642 643
-644 48
-644 -89
-48 89 644
-645 -643
-645 -644
643 644 645
-646 48
-646 -632
-48 632 646
-647 12
-647 46
-12 -46 647
-648 47
-648 647
-47 -647 648
-649 48
-649 648
-48 -648 649
-650 49
-650 -646
-49 646 650
-651 -49
-651 649
49 -649 651
-652 -650
-652 -651
650 651 652
-653 89
-653 -652
-89 652 653
-654 49
-654 -89
-49 89 654
-655 -653
-655 -654
653 654 655
-656 91
-656 299
-91 -299 656
-657 84
-657 656
-84 -656 657
-658 99
-658 365
-99 -365 658
-659 85
-659 658
-85 -658 659
-660 107
-660 431
-107 -431 660
-661 86
-661 660
-86 -660 661
-662 115
-662 497
-115 -497 662
-663 87
-663 662
-87 -662 663
-664 123
-664 563
-123 -563 664
-665 88
-665 664
-88 -664 665
-666 131
-666 629
-131 -629 666
-667 89
-667 666
-89 -666 667
-668 -657
-668 -659
657 659 668
-669 -661
-669 -663
661 663 669
-670 -665
-670 -667
665 667 670
-671 668
-671 669
-668 -669 671
-672 670
-672 671
-670 -671 672
-673 94
-673 143
-94 -143 673
-674 84
-674 673
-84 -673 674
-675 102
-675 150
-102 -150 675
-676 85
-676 675
-85 -675 676
-677 110
-677 157
-110 -157 677
-678 86
-678 677
-86 -677 678
-679 118
-679 164
-118 -164 679
-680 87
-680 679
-87 -679 680
-681 126
-681 171
-126 -171 681
-682 88
-682 681
-88 -681 682
-683 134
-683 178
-134 -178 683
-684 89
-684 683
-89 -683 684
-685 -674
-685 -676
674 676 685
-686 -678
-686 -680
678 680 686
-687 -682
-687 -684
682 684 687
-688 685
-688 686
-685 -686 688
-689 687
-689 688
-687 -688 689
-690 -50
-690 -689
50 689 690
-691 50
-691 689
-50 -689 691
-692 -690
-692 -691
690 691 692
-693 -50
-693 -672
50 672 693
-694 672
-694 -692
-672 692 694
-695 -693
-695 -694
693 694 695
-696 144
-696 299
-144 -299 696
-697 -20
-697 696
20 -696 697
-698 151
-698 365
-151 -365 698
-699 -21
-699 698
21 -698 699
-700 158
-700 431
-158 -431 700
-701 -22
-701 700
22 -700 701
-702 165
-702 497
-165 -497 702
-703 -23
-703 702
23 -702 703
-704 172
-704 563
-172 -563 704
-705 -24
-705 704
24 -704 705
-706 179
-706 629
-179 -629 706
-707 -25
-707 706
25 -706 707
-708 697
-708 -699
-697 699 708
-709 -697
-709 699
697 -699 709
-710 -708
-710 -709
708 709 710
-711 697
-711 699
-697 -699 711
-712 -701
-712 -710
701 710 712
-713 701
-713 710
-701 -710 713
-714 -712
-714 -713
712 713 714
-715 701
-715 -710
-701 710 715
-716 711
-716 -715
-711 715 716
-717 -711
-717 715
711 -715 717
-718 -716
-718 -717
716 717 718
-719 711
-719 715
-711 -715 719
-720 -703
-720 -714
703 714 720
-721 703
-721 714
-703 -714 721
-722 -720
-722 -721
720 721 722
-723 703
-723 -714
-703 714 723
-724 -719
-724 -722
719 722 724
-725 719
-725 722
-719 -722 725
-726 -724
-726 -725
724 725 726
-727 719
-727 -722
-719 722 727
-728 -723
-728 -727
723 727 728
-729 -718
-729 728
718 -728 729
-730 718
-730 -728
-718 728 730
-731 -729
-731 -730
729 730 731
-732 -718
-732 -728
718 728 732
-733 -705
-733 -726
705 726 733
-734 705
-734 726
-705 -726 734
-735 -733
-735 -734
733 734 735
-736 705
-736 -726
-705 726 736
-737 -731
-737 -736
731 736 737
-738 731
-738 736
-731 -736 738
-739 -737
-739 -738
737 738 739
-740 -731
-740 736
731 -736 740
-741 732
-741 -740
-732 740 741
-742 -732
-742 740
732 -740 742
-743 -741
-743 -742
741 742 743
-744 732
-744 740
-732 -740 744
-745 -707
-745 -735
707 735 745
-746 707
-746 735
-707 -735 746
-747 -745
-747 -746
745 746 747
-748 707
-748 -735
-707 735 748
-749 -744
-749 -747
744 747 749
-750 744
-750 747
-744 -747 750
-751 -749
-751 -750
749 750 751
-752 744
-752 -747
-744 747 752
-753 -748
-753 -752
748 752 753
-754 -739
-754 753
739 -753 754
-755 739
-755 -753
-739 753 755
-756 -754
-756 -755
754 755 756
-757 -739
-757 -753
739 753 757
-758 -743
-758 -757
743 757 758
-759 743
-759 757
-743 -757 759
-760 -758
-760 -759
758 759 760
-761 -743
-761 757
743 -757 761
-762 -756
-762 760
756 -760 762
-763 760
-763 -762
-760 762 763
-764 -50
-764 -259
50 259 764
-765 50
-765 -672
-50 672 765
-766 763
-766 -765
-763 765 766
-767 -690
-767 -764
690 764 767
-768 766
-768 767
-766 -767 768
-768
